original problem has 10990 variables (10989 bin, 0 int, 0 impl, 1 cont) and 12471 constraints
1/1 feasible solution given by solution candidate storage, new primal bound 1.200000e+01

presolving:
   (0.1s) running MILP presolver
   (0.1s) MILP presolver (2 rounds): 0 aggregations, 0 fixings, 0 bound changes
(round 1, exhaustive) 1 del vars, 1 del conss, 0 add conss, 0 chg bounds, 0 chg sides, 0 chg coeffs, 12344 upgd conss, 0 impls, 10463 clqs
(round 2, exhaustive) 1 del vars, 1 del conss, 2 add conss, 0 chg bounds, 3 chg sides, 5 chg coeffs, 12470 upgd conss, 0 impls, 10464 clqs
   (1.9s) probing: 1000/10989 (9.1%) - 0 fixings, 0 aggregations, 2123 implications, 0 bound changes
   (1.9s) probing: 1001/10989 (9.1%) - 0 fixings, 0 aggregations, 2125 implications, 0 bound changes
   (1.9s) probing aborted: 1000/1000 successive useless probings
presolving (3 rounds: 3 fast, 3 medium, 3 exhaustive):
 1 deleted vars, 1 deleted constraints, 2 added constraints, 0 tightened bounds, 0 added holes, 3 changed sides, 5 changed coefficients
 0 implications, 12590 cliques
presolved problem has 10989 variables (10989 bin, 0 int, 0 impl, 0 cont) and 12471 constraints
   1987 constraints of type <knapsack>
  10465 constraints of type <setppc>
     19 constraints of type <logicor>
transformed objective value is always integral (scale: 1)
Presolving Time: 1.83
transformed 1/1 original solutions to the transformed problem space

 time | node  | left  |LP iter|LP it/n|mem/heur|mdpt |vars |cons |rows |cuts |sepa|confs|strbr|  dualbound   | primalbound  |  gap   | compl. 
 10.9s|     1 |     0 | 16770 |     - |    79M |   0 |  10k|  12k|  12k|   0 |  0 |   0 |   0 | 1.200000e+01 | 1.200000e+01 |   0.00%| unknown

SCIP Status        : problem is solved [optimal solution found]
Solving Time (sec) : 10.94
Solving Nodes      : 1
Primal Bound       : +1.20000000000000e+01 (1 solutions)
Dual Bound         : +1.20000000000000e+01
Gap                : 0.00 %
